(set-info :smt-lib-version 2.6)
(set-logic UFLIA)
(set-info :source |
Generated by: Geoff Sutcliffe
Generated on: 2026-03-11
Generator: TPTPWorld
Application: Benchmarking automated theorem provers
Time limit: 120.0

These benchmarks are translations from the TPTP Library (Thousands of
Problems for Theorem Provers), see http://www.cs.miami.edu/~tptp/

The TPTP is maintained by Geoff Sutcliffe, and he contributed this
selection of benchmarks to SMT-LIB.  They were exported from the
v9.2.1 realease of TPTP.
|)
(set-info :category "industrial")
(set-info :status "unknown")
; SZS status Success
(declare-sort $$unsorted 0)
(declare-fun tptp.c () Int)
(declare-fun tptp.summation (Int) Int)
(declare-fun tptp.ub (Int Int Int) Bool)
(declare-fun tptp.model_max (Int Int Int) Bool)
(declare-fun tptp.model_ub (Int Int Int) Bool)
(declare-fun tptp.minsol_model_max (Int Int Int) Bool)
(declare-fun tptp.minsol_model_ub (Int Int Int) Bool)
(declare-fun tptp.max (Int Int) Int)
(assert (forall ((X Int) (Y Int)) (= (<= X Y) (<= (tptp.summation X) (tptp.summation Y)))))
(assert (forall ((X Int) (Y Int)) (or (= (tptp.max X Y) X) (not (<= Y X)))))
(assert (forall ((X Int) (Y Int)) (or (= (tptp.max X Y) Y) (not (<= X Y)))))
(assert (forall ((X Int) (Y Int) (Z Int)) (= (tptp.ub X Y Z) (and (<= X Z) (<= Y Z)))))
(assert (forall ((X Int) (Y Int) (N Int)) (= (tptp.model_max X Y N) (<= (+ tptp.c (tptp.max X Y)) N))))
(assert (forall ((X Int) (Y Int) (N Int)) (= (tptp.model_ub X Y N) (exists ((Z Int)) (and (tptp.ub X Y Z) (<= (+ tptp.c Z) N))))))
(assert (forall ((X Int) (Y Int) (N Int)) (= (tptp.minsol_model_max X Y N) (and (tptp.model_max X Y N) (forall ((Z Int)) (=> (tptp.model_max X Y Z) (<= N Z)))))))
(assert (forall ((X Int) (Y Int) (N Int)) (= (tptp.minsol_model_ub X Y N) (and (tptp.model_ub X Y N) (forall ((Z Int)) (=> (tptp.model_ub X Y Z) (<= N Z)))))))
(assert (not (forall ((X Int) (Y Int) (Z Int)) (= (tptp.minsol_model_ub X Y Z) (tptp.minsol_model_max X Y Z)))))
(check-sat)
(exit)
